NAME : swiss42-R-3-2-a.1273.tour
COMMENT : Length = 1273
COMMENT : Found by LKH-3 [Keld Helsgaun] Tue Jul 30 13:14:22 2024
TYPE : TOUR
DIMENSION : 42
TOUR_SECTION
1
33
35
34
21
36
37
32
18
8
38
16
17
15
20
14
6
27
19
13
12
26
11
9
42
24
10
22
41
25
40
23
39
31
30
29
3
28
4
5
7
2
-1
EOF
